141 136
20 24
98 33
40 22
150 140
80 112
65 129
53 136
148 127
114 25
70 144
91 75
77 147
126 103
32 95
99 96
140 116
150 73
141 43
23 83
63 132
79 135
124 99
71 92
63 35
97 49
48 43
33 29
106 83
64 62
130 45
115 114
100 95
76 63
48 94
96 43
83 120
66 62
97 98
120 105
84 51
83 60
108 100
83 53
77 65
